p tw 84 168
0 1
0 69
0 77
0 79
1 59
1 60
2 3
2 4
2 5
2 80
3 4
3 5
3 27
4 5
4 75
5 76
5 81
5 82
6 7
6 8
6 9
6 16
7 8
7 9
7 17
7 37
7 74
8 9
8 21
9 24
10 11
10 12
10 13
10 43
10 52
10 54
11 12
11 13
11 42
12 13
12 30
12 31
13 68
13 71
14 15
14 16
14 17
14 48
14 49
15 16
15 17
15 26
15 50
16 17
17 37
17 74
18 19
18 20
18 57
19 20
19 58
19 71
20 59
20 77
20 78
21 24
21 74
22 23
22 37
22 38
23 34
24 74
25 26
25 55
25 62
26 50
27 80
27 81
28 29
28 54
28 83
29 64
30 31
30 39
31 35
31 68
32 33
32 41
32 65
33 49
33 50
34 38
34 63
35 36
35 68
36 55
36 56
37 38
37 74
38 63
39 40
39 41
40 41
40 46
40 47
41 65
42 43
42 44
42 45
43 44
43 45
43 52
43 54
44 45
44 53
45 51
46 47
46 65
46 75
46 76
47 64
47 83
48 49
48 66
48 67
49 50
51 52
51 53
52 53
52 54
54 83
55 56
55 62
56 61
56 70
56 78
57 58
58 71
59 60
59 77
59 78
60 79
61 62
61 63
61 70
61 78
62 63
64 83
65 75
65 76
66 67
66 72
66 82
67 73
68 71
69 70
69 77
69 79
70 78
72 73
72 82
75 76
76 81
76 82
77 78
77 79
80 81
81 82
